proyfinal/src/viki/013/andrea/andrea-localstore/experimentInOfficeAgust.take6/worker_4/036f45ba-6a72-449b-a664-1047832261e5.als.cnf.out
Reading from standard input... Use '--help' for help.
============================[ Problem Statistics ]=============================
|                                                                             |
|  Number of variables:         87638                                         |
|  Number of clauses:          161767                                         |
|  Parse time:                   0.03 s                                       |
|                                                                             |
============================[ Search Statistics ]==============================
| Conflicts |          ORIGINAL         |          LEARNT          | Progress |
|           |    Vars  Clauses Literals |    Limit  Clauses Lit/Cl |          |
===============================================================================
|       100 |   63367   108652   271597 |    39839      100     18 | 27.695 % |
|       250 |   63367   108652   271597 |    43822      250     26 | 27.695 % |
|       475 |   63363   108649   271591 |    48205      471     25 | 27.699 % |
|       812 |   63363   108640   271573 |    53025      808     45 | 27.699 % |
|      1318 |   63323   108541   271313 |    58328     1302     37 | 27.745 % |
|      2077 |   63310   108443   271049 |    64161     1934     77 | 27.760 % |
|      3216 |   63310   108443   271049 |    70577     3073     89 | 27.760 % |
|      4924 |   63309   108399   270959 |    77635     4774     91 | 27.761 % |
|      7486 |   52302    75917   190811 |    85398     7098     91 | 40.320 % |
|     11330 |   52125    74819   188178 |    93938    10907     82 | 40.522 % |
|     17096 |   51964    74196   186717 |   103332    15258     78 | 40.706 % |
===============================================================================
restarts              : 70
conflicts             : 20343          (7407 /sec)
decisions             : 70386          (0.00 % random) (25629 /sec)
propagations          : 27917848       (10165630 /sec)
conflict literals     : 1452080        (46.41 % deleted)
Memory used           : 41.31 MB
CPU time              : 2.7463 s

UNSATISFIABLE
